ACTORES = {Actor1, Actor2, Actor3, Actor4} ;

Escenas = [| 0,1,0,0,0,0,10
           | 0,1,1,1,0,1,20
           | 1,1,1,1,0,1,5
           | 1,0,0,0,1,1,15|]; 
           
Duracion = [2,1,1,1,3,4];

Disponibilidad =[|Actor1, 5
                 |Actor2, 8
                 |Actor3, 0
                 |Actor4, 10|];

Evitar =[|Actor1, Actor2
         |Actor2, Actor3|];

% Ejecución con Gecode

% Orden de las Escenas: [4, 3, 2, 6, 1, 5]
% Costo: 330
% Tiempo Compartido: 8
% ----------
% ==========
% Finished in 260msec




